model-8-0.2.lp
Maximize
	 obj: x_7_0
Subject To
	x_0_1 <= 3
	x_0_2 <= 2
	x_0_3 <= 2
	x_1_4 <= 5
	x_1_5 <= 1
	x_2_4 <= 1
	x_2_5 <= 3
	x_2_6 <= 1
	x_3_5 <= 1
	x_4_7 <= 4
	x_5_7 <= 2
	x_6_7 <= 4
	x_7_0 <= inf
	x_0_1 - x_1_4 - x_1_5 = 0
	x_0_2 - x_2_4 - x_2_5 - x_2_6 = 0
	x_0_3 - x_3_5 = 0
	x_1_4 + x_2_4 - x_4_7 = 0
	x_1_5 + x_2_5 + x_3_5 - x_5_7 = 0
	x_2_6 - x_6_7 = 0
End