model-8-0.2.sol
Problem:    
Rows:       18
Columns:    12
Non-zeros:  30
Status:     OPTIMAL
Objective:  obj = 6 (MAXimum)

   No.   Row name   St   Activity     Lower bound   Upper bound    Marginal
------ ------------ -- ------------- ------------- ------------- -------------
     1 r.4          NU             3                           3             1 
     2 r.5          NU             2                           2             1 
     3 r.6          B              1                           2 
     4 r.7          B              3                           5 
     5 r.8          B              0                           1 
     6 r.9          NU             1                           1         < eps
     7 r.10         B              1                           3 
     8 r.11         B              0                           1 
     9 r.12         NU             1                           1             1 
    10 r.13         B              4                           4 
    11 r.14         B              2                           2 
    12 r.15         B              0                           4 
    13 r.16         NS             0             0             =         < eps
    14 r.17         NS             0             0             =         < eps
    15 r.18         NS             0             0             =             1 
    16 r.19         NS             0             0             =         < eps
    17 r.20         NS             0             0             =         < eps
    18 r.21         NS             0             0             =         < eps

   No. Column name  St   Activity     Lower bound   Upper bound    Marginal
------ ------------ -- ------------- ------------- ------------- -------------
     1 x_0_1        B              3             0               
     2 x_0_2        B              2             0               
     3 x_0_3        B              1             0               
     4 x_1_4        B              3             0               
     5 x_1_5        NL             0             0                       < eps
     6 x_2_4        B              1             0               
     7 x_2_5        B              1             0               
     8 x_2_6        NL             0             0                       < eps
     9 x_3_5        B              1             0               
    10 x_4_7        B              4             0               
    11 x_5_7        B              2             0               
    12 x_6_7        B              0             0               

Karush-Kuhn-Tucker optimality conditions:

KKT.PE: max.abs.err = 0.00e+00 on row 0
        max.rel.err = 0.00e+00 on row 0
        High quality

KKT.PB: max.abs.err = 0.00e+00 on row 0
        max.rel.err = 0.00e+00 on row 0
        High quality

KKT.DE: max.abs.err = 0.00e+00 on column 0
        max.rel.err = 0.00e+00 on column 0
        High quality

KKT.DB: max.abs.err = 0.00e+00 on row 0
        max.rel.err = 0.00e+00 on row 0
        High quality

End of output
